% student.arff : 30 students, class = result
% pass needs internal >= 12 and attendance >= 60 (one noisy row on purpose)
@relation student

@attribute hours numeric
@attribute attendance numeric
@attribute internal numeric
@attribute stream {science,commerce,arts}
@attribute result {pass,fail}

@data
12,85,24,science,pass
15,92,27,science,pass
8,70,15,commerce,pass
10,78,19,arts,pass
18,95,29,science,pass
6,65,13,commerce,pass
14,88,22,arts,pass
9,72,16,science,pass
11,80,20,commerce,pass
16,90,26,arts,pass
7,68,14,science,pass
13,84,23,commerce,pass
10,75,18,arts,pass
17,93,28,science,pass
9,74,17,commerce,pass
12,82,21,arts,pass
8,66,12,science,pass
15,89,25,commerce,pass
11,77,19,arts,pass
3,45,6,science,fail
4,50,8,commerce,fail
2,40,5,arts,fail
5,55,9,science,fail
6,58,11,commerce,fail
3,48,7,arts,fail
4,52,10,science,fail
7,60,11,commerce,fail
10,70,14,arts,fail
12,58,20,science,fail
6,62,10,commerce,fail
